306 5
10 10 10 10 10 

0 0 0 0 0 0 5 2 14 26 38 50 
0 0 0 0 0 0 6 3 4 6 7 11 12 
6 0 0 0 0 1 1 5 
7 0 0 0 0 3 1 5 
3 0 0 0 0 1 1 8 
8 0 0 0 0 3 1 10 
6 0 0 0 0 3 1 9 
2 0 0 0 0 4 1 13 
6 0 0 0 0 1 1 13 
9 0 0 0 0 3 1 13 
1 0 0 0 0 2 1 13 
8 0 0 0 0 4 1 13 
0 0 0 0 0 0 1 62 
0 0 0 0 0 0 5 15 16 18 19 24 
8 1 0 0 0 0 2 23 17 
8 3 0 0 0 0 2 22 17 
2 4 0 0 0 0 2 21 20 
5 1 0 0 0 0 1 21 
4 3 0 0 0 0 1 20 
4 3 0 0 0 0 1 25 
8 3 0 0 0 0 1 25 
5 2 0 0 0 0 1 25 
7 2 0 0 0 0 1 25 
7 3 0 0 0 0 1 25 
0 0 0 0 0 0 1 62 
0 0 0 0 0 0 6 27 29 30 34 35 36 
10 0 1 0 0 0 2 31 28 
9 0 1 0 0 0 1 32 
9 0 5 0 0 0 1 33 
1 0 3 0 0 0 1 31 
6 0 4 0 0 0 1 37 
9 0 5 0 0 0 1 37 
6 0 2 0 0 0 1 37 
4 0 1 0 0 0 1 37 
10 0 1 0 0 0 1 37 
3 0 2 0 0 0 1 37 
0 0 0 0 0 0 1 62 
0 0 0 0 0 0 6 39 41 45 46 47 48 
8 0 0 1 0 0 2 44 40 
4 0 0 2 0 0 1 42 
4 0 0 3 0 0 1 43 
10 0 0 5 0 0 1 49 
6 0 0 2 0 0 1 49 
9 0 0 2 0 0 1 49 
7 0 0 2 0 0 1 49 
6 0 0 3 0 0 1 49 
7 0 0 3 0 0 1 49 
6 0 0 2 0 0 1 49 
0 0 0 0 0 0 1 62 
0 0 0 0 0 0 6 51 52 53 55 56 60 
1 1 0 0 0 0 2 58 54 
3 5 0 0 0 0 2 58 57 
2 3 0 0 0 0 1 54 
3 1 0 0 0 0 1 57 
4 2 0 0 0 0 1 59 
2 1 0 0 0 0 1 57 
8 4 0 0 0 0 1 61 
9 4 0 0 0 0 1 61 
7 2 0 0 0 0 1 61 
6 2 0 0 0 0 1 61 
0 0 0 0 0 0 1 62 
0 0 0 0 0 0 5 63 75 87 99 111 
0 0 0 0 0 0 5 64 65 67 68 73 
6 0 0 1 0 0 3 72 71 66 
4 0 0 1 0 0 3 72 70 69 
9 0 0 1 0 0 1 69 
9 0 0 2 0 0 1 71 
8 0 0 2 0 0 1 70 
6 0 0 1 0 0 1 74 
10 0 0 5 0 0 1 74 
7 0 0 3 0 0 1 74 
5 0 0 6 0 0 1 74 
8 0 0 3 0 0 1 74 
0 0 0 0 0 0 1 123 
0 0 0 0 0 0 7 76 78 79 82 83 84 85 
10 0 0 1 0 0 2 81 77 
7 0 0 4 0 0 1 80 
10 0 0 3 0 0 1 81 
4 0 0 4 0 0 1 80 
2 0 0 1 0 0 1 86 
6 0 0 3 0 0 1 86 
2 0 0 1 0 0 1 86 
3 0 0 4 0 0 1 86 
3 0 0 3 0 0 1 86 
6 0 0 1 0 0 1 86 
0 0 0 0 0 0 1 123 
0 0 0 0 0 0 4 88 89 92 97 
3 0 0 0 1 0 2 91 90 
4 0 0 0 2 0 1 90 
9 0 0 0 4 0 4 96 95 94 93 
8 0 0 0 4 0 1 94 
10 0 0 0 1 0 1 93 
5 0 0 0 4 0 1 98 
10 0 0 0 1 0 1 98 
10 0 0 0 2 0 1 98 
10 0 0 0 4 0 1 98 
8 0 0 0 2 0 1 98 
0 0 0 0 0 0 1 123 
0 0 0 0 0 0 5 100 101 102 103 105 
3 1 0 0 0 0 3 109 107 106 
2 2 0 0 0 0 3 108 107 106 
3 3 0 0 0 0 2 107 104 
10 3 0 0 0 0 1 104 
3 4 0 0 0 0 1 106 
4 1 0 0 0 0 1 108 
1 4 0 0 0 0 1 110 
4 1 0 0 0 0 1 110 
10 3 0 0 0 0 1 110 
10 3 0 0 0 0 1 110 
0 0 0 0 0 0 1 123 
0 0 0 0 0 0 7 112 114 115 116 119 120 121 
6 0 0 0 0 1 2 118 113 
8 0 0 0 0 1 1 117 
2 0 0 0 0 2 1 117 
10 0 0 0 0 2 1 117 
2 0 0 0 0 4 1 117 
6 0 0 0 0 4 1 122 
9 0 0 0 0 2 1 122 
10 0 0 0 0 4 1 122 
5 0 0 0 0 2 1 122 
9 0 0 0 0 3 1 122 
0 0 0 0 0 0 1 123 
0 0 0 0 0 0 5 124 136 148 160 172 
0 0 0 0 0 0 3 125 127 129 
2 0 1 0 0 0 2 128 126 
3 0 1 0 0 0 5 134 133 132 131 130 
2 0 5 0 0 0 3 134 131 130 
2 0 1 0 0 0 2 133 131 
8 0 2 0 0 0 2 132 130 
8 0 3 0 0 0 1 135 
5 0 2 0 0 0 1 135 
10 0 3 0 0 0 1 135 
2 0 3 0 0 0 1 135 
8 0 4 0 0 0 1 135 
0 0 0 0 0 0 1 184 
0 0 0 0 0 0 6 137 138 139 140 141 146 
5 0 1 0 0 0 2 145 142 
9 0 1 0 0 0 2 145 142 
2 0 4 0 0 0 2 144 143 
3 0 1 0 0 0 2 144 143 
7 0 3 0 0 0 1 142 
1 0 4 0 0 0 1 143 
8 0 4 0 0 0 1 147 
9 0 3 0 0 0 1 147 
10 0 2 0 0 0 1 147 
6 0 2 0 0 0 1 147 
0 0 0 0 0 0 1 184 
0 0 0 0 0 0 3 149 150 152 
1 0 0 0 0 1 3 154 153 151 
9 0 0 0 0 3 4 158 156 155 153 
4 0 0 0 0 1 2 156 155 
6 0 0 0 0 3 1 154 
3 0 0 0 0 4 1 157 
6 0 0 0 0 5 1 155 
2 0 0 0 0 1 1 159 
5 0 0 0 0 5 1 159 
9 0 0 0 0 1 1 159 
5 0 0 0 0 1 1 159 
0 0 0 0 0 0 1 184 
0 0 0 0 0 0 4 161 162 164 165 
3 0 0 1 0 0 3 170 166 163 
4 0 0 4 0 0 2 166 163 
3 0 0 3 0 0 3 169 168 167 
8 0 0 3 0 0 3 170 169 167 
4 0 0 4 0 0 3 170 168 167 
8 0 0 1 0 0 1 167 
5 0 0 3 0 0 1 171 
2 0 0 2 0 0 1 171 
9 0 0 2 0 0 1 171 
5 0 0 2 0 0 1 171 
0 0 0 0 0 0 1 184 
0 0 0 0 0 0 4 173 174 175 177 
10 0 1 0 0 0 4 182 181 180 178 
6 0 3 0 0 0 3 180 178 176 
6 0 2 0 0 0 2 178 176 
2 0 3 0 0 0 1 179 
9 0 2 0 0 0 1 178 
7 0 3 0 0 0 1 183 
10 0 3 0 0 0 1 183 
1 0 1 0 0 0 1 183 
6 0 5 0 0 0 1 183 
2 0 2 0 0 0 1 183 
0 0 0 0 0 0 1 184 
0 0 0 0 0 0 5 185 197 209 221 233 
0 0 0 0 0 0 5 186 187 188 190 191 
2 0 1 0 0 0 3 195 194 192 
6 0 1 0 0 0 2 194 192 
5 0 4 0 0 0 1 189 
2 0 1 0 0 0 1 192 
2 0 2 0 0 0 1 193 
9 0 5 0 0 0 1 193 
8 0 2 0 0 0 1 196 
2 0 3 0 0 0 1 196 
6 0 2 0 0 0 1 196 
9 0 4 0 0 0 1 196 
0 0 0 0 0 0 1 245 
0 0 0 0 0 0 5 198 199 200 202 207 
4 0 0 0 1 0 3 206 205 203 
2 0 0 0 5 0 3 205 204 203 
7 0 0 0 2 0 1 201 
3 0 0 0 3 0 1 204 
10 0 0 0 2 0 1 203 
1 0 0 0 5 0 1 208 
2 0 0 0 2 0 1 208 
1 0 0 0 3 0 1 208 
10 0 0 0 1 0 1 208 
1 0 0 0 1 0 1 208 
0 0 0 0 0 0 1 245 
0 0 0 0 0 0 5 210 211 212 213 215 
9 0 0 1 0 0 4 219 217 216 214 
8 0 0 3 0 0 3 218 217 216 
2 0 0 3 0 0 2 217 216 
7 0 0 4 0 0 2 217 216 
3 0 0 2 0 0 1 218 
4 0 0 2 0 0 1 216 
9 0 0 3 0 0 1 220 
7 0 0 2 0 0 1 220 
6 0 0 3 0 0 1 220 
4 0 0 2 0 0 1 220 
0 0 0 0 0 0 1 245 
0 0 0 0 0 0 6 222 223 224 225 226 228 
4 0 0 1 0 0 3 231 230 227 
8 0 0 3 0 0 3 231 230 227 
7 0 0 3 0 0 2 231 227 
1 0 0 1 0 0 2 231 227 
2 0 0 3 0 0 2 230 229 
7 0 0 2 0 0 1 229 
1 0 0 1 0 0 1 230 
5 0 0 4 0 0 1 232 
8 0 0 5 0 0 1 232 
9 0 0 2 0 0 1 232 
0 0 0 0 0 0 1 245 
0 0 0 0 0 0 5 234 235 236 237 238 
8 0 0 1 0 0 3 243 240 239 
10 0 0 5 0 0 3 243 240 239 
6 0 0 2 0 0 2 243 241 
3 0 0 1 0 0 2 242 241 
6 0 0 3 0 0 2 242 241 
2 0 0 2 0 0 1 242 
7 0 0 3 0 0 1 241 
7 0 0 3 0 0 1 244 
10 0 0 3 0 0 1 244 
7 0 0 2 0 0 1 244 
0 0 0 0 0 0 1 245 
0 0 0 0 0 0 5 246 258 270 282 294 
0 0 0 0 0 0 3 247 248 249 
5 0 0 0 0 1 5 254 253 252 251 250 
9 0 0 0 0 3 5 254 253 252 251 250 
4 0 0 0 0 2 5 254 253 252 251 250 
5 0 0 0 0 2 2 256 255 
1 0 0 0 0 3 2 256 255 
8 0 0 0 0 4 2 256 255 
7 0 0 0 0 2 2 256 255 
7 0 0 0 0 3 2 256 255 
8 0 0 0 0 2 1 257 
9 0 0 0 0 3 1 257 
0 0 0 0 0 0 1 306 
0 0 0 0 0 0 4 259 260 264 265 
5 0 1 0 0 0 3 268 266 262 
10 0 1 0 0 0 2 263 261 
5 0 3 0 0 0 2 267 266 
9 0 2 0 0 0 1 267 
5 0 4 0 0 0 1 266 
1 0 4 0 0 0 1 266 
5 0 4 0 0 0 1 266 
6 0 2 0 0 0 1 269 
3 0 2 0 0 0 1 269 
2 0 2 0 0 0 1 269 
0 0 0 0 0 0 1 306 
0 0 0 0 0 0 5 271 272 273 276 277 
10 0 0 1 0 0 2 280 274 
6 0 0 5 0 0 2 275 274 
6 0 0 3 0 0 2 275 274 
3 0 0 3 0 0 1 278 
6 0 0 2 0 0 1 278 
6 0 0 2 0 0 1 279 
4 0 0 3 0 0 1 278 
4 0 0 1 0 0 1 281 
2 0 0 3 0 0 1 281 
10 0 0 2 0 0 1 281 
0 0 0 0 0 0 1 306 
0 0 0 0 0 0 6 283 286 287 288 289 290 
7 0 0 0 1 0 2 285 284 
1 0 0 0 4 0 2 292 291 
4 0 0 0 1 0 2 292 291 
7 0 0 0 3 0 2 292 291 
1 0 0 0 2 0 1 292 
9 0 0 0 5 0 1 291 
4 0 0 0 2 0 1 291 
6 0 0 0 4 0 1 291 
8 0 0 0 2 0 1 293 
8 0 0 0 1 0 1 293 
0 0 0 0 0 0 1 306 
0 0 0 0 0 0 4 295 296 297 298 
7 0 0 0 1 0 3 301 300 299 
7 0 0 0 3 0 3 301 300 299 
3 0 0 0 3 0 3 301 300 299 
7 0 0 0 4 0 2 301 300 
1 0 0 0 5 0 3 304 303 302 
10 0 0 0 2 0 2 304 302 
6 0 0 0 1 0 2 303 302 
6 0 0 0 1 0 1 305 
5 0 0 0 3 0 1 305 
9 0 0 0 2 0 1 305 
0 0 0 0 0 0 1 306 
0 0 0 0 0 0 0 
